db/data/118851196741764244510112213141457605.z3.out
sat
-------------------
1729.576028712
